(set-logic QF_S)
(declare-fun var0 () String)
(declare-fun var1 () String)
(declare-fun var2 () String)
(declare-fun var3 () String)
(declare-fun var4 () Int)
(declare-fun var5 () Int)
(declare-fun var6 () Int)
(declare-fun var7 () Int)
(assert (str.in.re (str.replace var0 var1 var2) (re.* re.allchar)))
(assert (< (str.to.int (str.replace var3 var2 var2)) (str.indexof var2 var3 var4)))
(assert (< (str.indexof var3 var0 var5) (str.to.int (str.replace var0 var1 var1))))
(assert (>= (str.to.int var2) (str.indexof (str.substr var3 var6 var7) (str.at var1 var7) (str.len var0))))
(check-sat)